(set-info :smt-lib-version 2.6)
(set-logic QF_UFLRA)
(set-info :source |
MathSat group

|)
(set-info :category "random")
(set-info :status sat)
(declare-fun x0 () Real)
(declare-fun x1 () Real)
(declare-fun x2 () Real)
(declare-fun x3 () Real)
(declare-fun x4 () Real)
(declare-fun x5 () Real)
(declare-fun x6 () Real)
(declare-fun x7 () Real)
(declare-fun x8 () Real)
(declare-fun x9 () Real)
(declare-fun x10 () Real)
(declare-fun x11 () Real)
(declare-fun x12 () Real)
(declare-fun x13 () Real)
(declare-fun x14 () Real)
(declare-fun x15 () Real)
(declare-fun x16 () Real)
(declare-fun x17 () Real)
(declare-fun x18 () Real)
(declare-fun x19 () Real)
(declare-fun x20 () Real)
(declare-fun x21 () Real)
(declare-fun x22 () Real)
(declare-fun x23 () Real)
(declare-fun x24 () Real)
(declare-fun x25 () Real)
(declare-fun x26 () Real)
(declare-fun x27 () Real)
(declare-fun x28 () Real)
(declare-fun x29 () Real)
(declare-fun x30 () Real)
(declare-fun x31 () Real)
(declare-fun x32 () Real)
(declare-fun x33 () Real)
(declare-fun x34 () Real)
(declare-fun x35 () Real)
(declare-fun x36 () Real)
(declare-fun x37 () Real)
(declare-fun x38 () Real)
(declare-fun x39 () Real)
(declare-fun f0_1 (Real) Real)
(declare-fun f0_2 (Real Real) Real)
(declare-fun f0_3 (Real Real Real) Real)
(declare-fun f0_4 (Real Real Real Real) Real)
(declare-fun P0 () Bool)
(declare-fun P1 () Bool)
(declare-fun P2 () Bool)
(declare-fun P3 () Bool)
(declare-fun P4 () Bool)
(declare-fun P5 () Bool)
(declare-fun P6 () Bool)
(declare-fun P7 () Bool)
(declare-fun P8 () Bool)
(declare-fun P9 () Bool)
(declare-fun P10 () Bool)
(declare-fun P11 () Bool)
(declare-fun P12 () Bool)
(declare-fun P13 () Bool)
(declare-fun P14 () Bool)
(declare-fun P15 () Bool)
(declare-fun P16 () Bool)
(declare-fun P17 () Bool)
(declare-fun P18 () Bool)
(declare-fun P19 () Bool)
(declare-fun P20 () Bool)
(declare-fun P21 () Bool)
(declare-fun P22 () Bool)
(declare-fun P23 () Bool)
(declare-fun P24 () Bool)
(declare-fun P25 () Bool)
(declare-fun P26 () Bool)
(declare-fun P27 () Bool)
(declare-fun P28 () Bool)
(declare-fun P29 () Bool)
(declare-fun P30 () Bool)
(declare-fun P31 () Bool)
(declare-fun P32 () Bool)
(declare-fun P33 () Bool)
(declare-fun P34 () Bool)
(declare-fun P35 () Bool)
(declare-fun P36 () Bool)
(declare-fun P37 () Bool)
(declare-fun P38 () Bool)
(declare-fun P39 () Bool)
(assert (let ((?v_63 (<= (+ (- (* 13 x25) (* 46 x23)) (* 22 x15)) 11)) (?v_17 (* 43 x32)) (?v_57 (< (- (- (* 30 x1) (* 43 x24)) (* 38 x30)) 9)) (?v_75 (* 19 x16)) (?v_25 (* 49 x36)) (?v_66 (= (- (- (* 17 x11) (* 52 x11)) (* 34 x2)) 47)) (?v_67 (<= (+ (- (* 39 x6) (* 12 x22)) (* 35 x34)) 37)) (?v_52 (< (+ (- (* 36 x25) (* 23 x38)) (* 5 x14)) 19)) (?v_24 (f0_1 x12))) (let ((?v_87 (distinct (f0_1 x16) ?v_24)) (?v_34 (f0_1 x26))) (let ((?v_56 (distinct (f0_1 x34) ?v_34)) (?v_130 (distinct (f0_1 x32) (f0_1 x5))) (?v_110 (= (f0_2 x11 x20) ?v_24)) (?v_99 (f0_1 x19))) (let ((?v_125 (distinct ?v_99 x35)) (?v_113 (distinct (f0_2 x33 x21) (f0_2 x11 x39))) (?v_53 (= x5 (f0_2 x32 x15))) (?v_59 (distinct (f0_2 x2 x37) x31)) (?v_105 (= x31 (f0_2 x3 x27))) (?v_35 (= x32 (f0_2 x12 x29))) (?v_84 (= (f0_2 x18 x30) x39)) (?v_128 (= x19 x36)) (?v_131 (= (f0_2 x17 x32) x12)) (?v_106 (= (f0_2 x1 x16) x29)) (?v_143 (= x15 (f0_1 x17))) (?v_9 (= x23 (f0_2 x21 x20))) (?v_123 (= x20 (f0_2 x10 x7))) (?v_127 (= x16 (f0_1 x39))) (?v_4 (f0_1 x38))) (let ((?v_36 (= ?v_4 (f0_1 x28))) (?v_155 (= (f0_2 x38 x29) (f0_2 x13 x14))) (?v_168 (= x9 x32)) (?v_46 (distinct (f0_2 x19 x5) (f0_2 x13 x28))) (?v_39 (= (f0_2 x21 x13) (f0_2 x25 x10))) (?v_48 (distinct (f0_1 x30) (f0_1 x18))) (?v_121 (f0_1 x11))) (let ((?v_28 (= ?v_121 (f0_2 x37 x36))) (?v_157 (distinct (f0_2 x20 x29) (f0_2 x5 x13))) (?v_93 (distinct (f0_1 x36) (f0_2 x38 x23))) (?v_32 (= (f0_2 x32 x12) (f0_2 x1 x25))) (?v_83 (distinct ?v_34 x26)) (?v_7 (= x37 (f0_1 x4))) (?v_12 (distinct x2 (f0_2 x25 x17))) (?v_60 (= (f0_2 x22 x2) (f0_2 x2 x8))) (?v_82 (= (f0_2 x13 x30) ?v_99)) (?v_19 (= x35 x2)) (?v_51 (= x8 x30)) (?v_15 (= (f0_1 x8) (f0_1 x25))) (?v_11 (distinct x8 (f0_2 x28 x0))) (?v_97 (= x4 ?v_4)) (?v_171 (distinct x3 ?v_121)) (?v_102 (distinct (f0_2 x15 x0) (f0_1 x27))) (?v_191 (not P35)) (?v_22 (not P39))) (let ((?v_96 (not ?v_19)) (?v_115 (not ?v_127)) (?v_187 (not ?v_102)) (?v_37 (not ?v_131)) (?v_89 (not P20)) (?v_44 (not ?v_36)) (?v_16 (not ?v_97)) (?v_73 (not P26)) (?v_10 (not P15)) (?v_33 (not P38)) (?v_41 (not P31)) (?v_178 (not P4)) (?v_29 (not ?v_11)) (?v_129 (not ?v_39)) (?v_145 (not ?v_9)) (?v_192 (not P0)) (?v_69 (not P10)) (?v_26 (not P8)) (?v_61 (not ?v_123)) (?v_72 (not ?v_12)) (?v_20 (not ?v_66)) (?v_45 (not ?v_67)) (?v_116 (not ?v_59)) (?v_153 (not ?v_56)) (?v_119 (not P25)) (?v_23 (not ?v_168)) (?v_62 (not ?v_110)) (?v_104 (not P37)) (?v_160 (not ?v_32)) (?v_138 (not P3)) (?v_50 (not ?v_83)) (?v_149 (not ?v_35)) (?v_166 (not ?v_46)) (?v_54 (not ?v_28)) (?v_76 (not ?v_113)) (?v_101 (not ?v_48)) (?v_74 (not P22)) (?v_111 (not ?v_51)) (?v_64 (not ?v_52)) (?v_78 (not P2)) (?v_146 (not P34)) (?v_58 (not P9)) (?v_91 (not ?v_57)) (?v_77 (not P16)) (?v_94 (not ?v_60)) (?v_100 (not ?v_15)) (?v_152 (not ?v_63)) (?v_181 (not ?v_105)) (?v_167 (not P21)) (?v_68 (not P23)) (?v_81 (not P1)) (?v_136 (not ?v_84)) (?v_122 (not P19)) (?v_88 (not P13)) (?v_202 (not P29)) (?v_186 (not ?v_7)) (?v_163 (not P12)) (?v_118 (not ?v_125)) (?v_133 (not ?v_87)) (?v_154 (not ?v_106)) (?v_124 (not ?v_53)) (?v_184 (not P7)) (?v_141 (not P32)) (?v_162 (not P5)) (?v_135 (not ?v_171)) (?v_196 (not P11)) (?v_174 (not ?v_128)) (?v_172 (not P28)) (?v_132 (not P17)) (?v_159 (or ?v_7 ?v_53)) (?v_204 (not ?v_143)) (?v_197 (not ?v_130)) (?v_177 (not ?v_93)) (?v_185 (not P18)) (?v_198 (not P30)) (?v_194 (not P33)) (?v_179 (not P36)) (?v_200 (not P14)) (?v_188 (not P6)) (?v_183 (not P24)) (?v_195 (not ?v_157)) (?v_206 (not P27)) (?v_207 (or ?v_128 P36)) (?v_5 (distinct (+ (* 57 x38) ?v_25 ?v_75) 50)) (?v_13 (<= (+ (* 46 x6) (* 30 x10)) 48)) (?v_158 (<= (+ (* 56 x34) (* 35 x19) (* 2 x33)) 10))) (let ((?v_6 (not ?v_158)) (?v_71 (not ?v_5)) (?v_120 (< (- (- (* 3 x37) 0) (* 26 x15)) 54)) (?v_173 (not ?v_13)) (?v_49 (< (+ (* 37 x21) (* 33 x17)) 29)) (?v_65 (<= (+ (* 53 x7) (* 13 x2)) 1))) (let ((?v_80 (not ?v_65)) (?v_107 (< (- (- x37 (* 11 x3)) (* 18 x4)) 54))) (let ((?v_134 (not ?v_107)) (?v_189 (not ?v_120)) (?v_193 (not ?v_49)) (?v_0 (<= (+ (- (* (- 34) x7) (* 32 x20)) (* 19 x6)) 35)) (?v_42 (<= (+ (* (- 50) x6) (* 42 x12) (* 18 x19)) 56))) (let ((?v_3 (not ?v_42)) (?v_1 (<= (- (+ (* 26 x35) (* 16 x19)) (* 46 x18)) (- 49))) (?v_43 (< (+ (* (- 35) x5) (* 4 x24) (* 32 x3)) (- 58)))) (let ((?v_14 (not ?v_43)) (?v_95 (< (+ (- (* 25 x11) (* 17 x18)) (* 51 x31)) (- 33)))) (let ((?v_2 (not ?v_95)) (?v_30 (< (- (* 45 x39) (* 51 x3)) (- 47))) (?v_31 (not ?v_1)) (?v_156 (<= (- (- (* (- 56) x14) (* 30 x8)) (* 47 x13)) (- 8)))) (let ((?v_18 (not ?v_156)) (?v_8 (< (+ (- (* (- 30) x13) ?v_17) (* 13 x16)) 13))) (let ((?v_190 (not ?v_8)) (?v_79 (< (+ (* 53 x25) (* 11 x22)) (- 42))) (?v_175 (< (- (+ (* (- 35) x10) (* 36 x8)) (* 34 x9)) 31))) (let ((?v_90 (not ?v_175)) (?v_27 (<= (+ (* 50 x31) (* 42 x22) (* 2 x16)) (- 13))) (?v_21 (< (- (- (* (- 6) x23) 0) ?v_17) (- 58)))) (let ((?v_40 (not ?v_21)) (?v_161 (< (+ (- (* (- 33) x25) (* 18 x13)) ?v_25) 26)) (?v_203 (not ?v_27)) (?v_55 (not ?v_30)) (?v_86 (<= (+ (- (* 38 x4) (* 11 x13)) (* 3 x28)) (- 46)))) (let ((?v_165 (not ?v_86)) (?v_38 (<= (- (+ (* (- 20) x7) (* 12 x14)) (* 28 x17)) 16)) (?v_70 (= (+ (- (* (- 10) x39) (* 9 x29)) (* 11 x38)) (- 38)))) (let ((?v_47 (not ?v_38)) (?v_98 (< (- (+ (* (- 22) x3) (* 55 x27)) (* 42 x34)) (- 16))) (?v_112 (<= (- (+ (* (- 43) x1) (* 49 x22)) (* 9 x31)) (- 47)))) (let ((?v_199 (not ?v_112)) (?v_108 (< (- (+ (* 30 x3) (* 45 x10)) x2) (- 51)))) (let ((?v_147 (not ?v_108)) (?v_117 (<= (+ (- (* (- 55) x34) (* 34 x30)) (* 24 x16)) (- 33))) (?v_180 (< (+ (- (* (- 35) x29) (* 18 x3)) (* 7 x39)) (- 24)))) (let ((?v_126 (not ?v_180)) (?v_151 (< (- (- (* (- 15) x33) ?v_75) (* 2 x9)) 12))) (let ((?v_137 (not ?v_151)) (?v_142 (< (+ (* (- 19) x17) (* 33 x29) (* 45 x14)) (- 52)))) (let ((?v_85 (not ?v_142)) (?v_92 (<= (- (+ (* (- 17) x5) (* 37 x25)) (* 50 x28)) (- 59)))) (let ((?v_182 (not ?v_92)) (?v_144 (<= (- (* 48 x34) (* 8 x36)) (- 47))) (?v_103 (not ?v_98)) (?v_140 (<= (- (+ (* (- 17) x11) (* 15 x6)) 0) (- 1)))) (let ((?v_150 (not ?v_140)) (?v_114 (< (+ (* (- 23) x37) (* 17 x9) (* 7 x11)) 58)) (?v_164 (not ?v_79)) (?v_109 (<= (- (* (- 2) x0) (* 48 x14)) (- 57)))) (let ((?v_139 (not ?v_109)) (?v_148 (not ?v_117)) (?v_169 (not ?v_70)) (?v_170 (not ?v_0)) (?v_176 (not ?v_144)) (?v_205 (not ?v_161)) (?v_201 (not ?v_114))) (and (and (and (and (and (and (and (and (and (and (and (and (and (and (and (and (and (and (and (and (and (and (and (and (and (and (and (and (and (and (and (and (and (and (and (and (and (and (and (and (and (and (and (and (and (and (and (and (and (and (and (and (and (and (and (and (and (and (and (and (and (and (and (and (and (and (and (and (and (and (and (and (and (and (and (and (and (and (and (and (and (and (and (and (and (and (and (and (and (and (and (and (and (and (and (and (and (and (and (and (and (and (and (and (and (and (and (and (and (and (and (and (and (and (and (and (and (and (and (and (and (and (and (and (and (and (and (and (and (and (and (and (and (and (and (and (and (and (and (and (and (and (and (and (and (and (and (and (and (and (and (and (and (and (and (and (and (and (and (and (and (and (and (and (and (and (and (and (and (and (and (and (and (and (and (and (and (and (and (and (and (and (and (and (and (and (and (and (and (and (and (and (and (and (and (and (and (and (and (and (and (and (and (and (and (and (and (and (and (and (and (and (and (and (and (and (and (and (and (and (and (and (and (and (and (and (and (and (and (and (and (and (and (and (and (and (and (and (and (and (and (and (and (and (and (and (and (and (and (and (and (and (and (and (and (and (and (and (and (and (and (and (and (and (and (and (and (and (and (and (and (and (and (and (and (and (and (and (and (and (and (and (and (and (and (and (and (and (and (and (and (and (and (and (and (and (and (and (and (and (and (and (and (and (and (and (and (and (and (and (and (and (and (and (and (and (and (and (and (and (and (and (and (and (and (and (and (and (and (and (and (and (and (and (and (and (and (and (and (and (and (and (and (and (and (and (and (and (and (and (and (and (and (and (and (and (and (and (and (and (and (and (and (and (and (and (and (and (and (and (and (and (and (and (and (and (and (and (and (and (and (and (and (and (and (and (and (and (and (and (and (and (and (and (and (and (and (and (and (and (and (and (and (and (and (and (and (and (and (and (and (and (and (and (and (and (and (and (and (and (and (and (and (and (and (and (and (and (and (and (and (and (and (and (and (and (and (and (and (and (and (and (and (and (and (and (and (and (and (and (and (and (and (and (and (and (and (and (and (and (and (and (and (and (and (and (and (and (and (and (and (and (and (and (and (and (and (and (and (or (or P14 ?v_0) ?v_191) (or (or ?v_3 ?v_1) ?v_22)) (or (or ?v_9 P15) ?v_32)) (or (or ?v_53 P36) ?v_5)) (or (or ?v_96 ?v_0) ?v_7)) (or (or ?v_35 ?v_14) ?v_2)) (or (or ?v_115 ?v_187) ?v_106)) (or (or ?v_37 ?v_89) ?v_30)) (or (or ?v_31 ?v_13) ?v_60)) (or (or ?v_44 ?v_2) ?v_3)) (or (or ?v_6 ?v_16) ?v_71)) (or (or ?v_18 ?v_73) ?v_6)) (or (or ?v_190 ?v_10) ?v_33)) (or (or ?v_57 ?v_41) ?v_28)) (or (or ?v_178 ?v_29) ?v_7)) (or (or ?v_120 ?v_8) ?v_79)) (or (or ?v_12 ?v_129) ?v_145)) (or (or ?v_192 P31) ?v_69)) (or (or ?v_90 ?v_10) ?v_26)) (or (or P19 ?v_27) P16)) (or (or ?v_61 ?v_15) ?v_11)) (or (or P3 P29) ?v_72)) (or (or ?v_173 P34) ?v_20)) (or (or ?v_14 ?v_15) ?v_45)) (or (or ?v_116 ?v_153) ?v_119)) (or (or ?v_23 ?v_16) P37)) (or (or ?v_21 ?v_18) ?v_9)) (or (or ?v_19 ?v_87) ?v_20)) (or (or ?v_49 ?v_40) P26)) (or (or ?v_22 P34) ?v_23)) (or (or P6 ?v_11) P13)) (or (or ?v_62 ?v_161) P13)) (or (or ?v_26 ?v_203) P35)) (or (or ?v_28 ?v_104) ?v_29)) (or (or ?v_55 ?v_31) ?v_160)) (or (or P21 ?v_5) ?v_165)) (or (or ?v_38 ?v_70) P29)) (or (or ?v_138 P16) ?v_21)) (or (or ?v_33 ?v_50) ?v_80)) (or (or ?v_51 ?v_149) ?v_36)) (or (or ?v_166 ?v_93) ?v_48)) (or (or ?v_18 ?v_52) P35)) (or (or P39 ?v_37) ?v_54)) (or (or ?v_76 ?v_7) ?v_47)) (or (or ?v_39 ?v_40) P36)) (or (or ?v_41 P17) ?v_42)) (or (or ?v_7 ?v_0) P18)) (or (or ?v_43 P11) ?v_11)) (or (or ?v_44 ?v_45) ?v_46)) (or (or ?v_47 ?v_35) ?v_101)) (or (or ?v_157 P27) ?v_74)) (or (or ?v_39 ?v_49) ?v_50)) (or (or ?v_111 ?v_10) P16)) (or (or ?v_64 ?v_8) P38)) (or (or P29 ?v_78) ?v_146)) (or (or ?v_53 ?v_54) ?v_55)) (or (or ?v_58 ?v_56) P28)) (or (or P34 ?v_91) ?v_98)) (or (or P25 ?v_58) ?v_199)) (or (or ?v_30 ?v_55) ?v_77)) (or (or P37 ?v_55) ?v_59)) (or (or ?v_147 ?v_56) ?v_94)) (or (or ?v_100 ?v_38) ?v_7)) (or (or ?v_61 ?v_18) ?v_152)) (or (or ?v_7 ?v_38) ?v_181)) (or (or ?v_62 P2) ?v_43)) (or (or ?v_167 ?v_68) ?v_63)) (or (or ?v_21 ?v_64) ?v_81)) (or (or ?v_143 P22) ?v_18)) (or (or ?v_117 ?v_65) ?v_58)) (or (or ?v_55 P8) ?v_66)) (or (or ?v_0 ?v_67) ?v_68)) (or (or ?v_30 ?v_136) ?v_36)) (or (or (not ?v_82) ?v_69) ?v_70)) (or (or ?v_43 ?v_70) ?v_55)) (or (or ?v_71 P25) ?v_72)) (or (or ?v_126 ?v_73) ?v_74)) (or (or ?v_137 ?v_76) ?v_49)) (or (or ?v_77 ?v_31) P30)) (or (or ?v_122 ?v_36) ?v_128)) (or (or ?v_78 ?v_79) ?v_8)) (or (or ?v_80 ?v_69) ?v_88)) (or (or ?v_81 ?v_85) ?v_202)) (or (or ?v_182 ?v_82) ?v_83)) (or (or ?v_32 ?v_84) ?v_85)) (or (or ?v_46 ?v_86) ?v_87)) (or (or ?v_186 P31) ?v_43)) (or (or ?v_65 ?v_88) ?v_89)) (or (or ?v_46 ?v_31) ?v_73)) (or (or ?v_90 ?v_91) ?v_92)) (or (or ?v_54 ?v_33) ?v_78)) (or (or ?v_62 ?v_93) ?v_20)) (or (or ?v_94 ?v_92) ?v_95)) (or (or ?v_96 ?v_144) P30)) (or (or ?v_97 ?v_103) ?v_163)) (or (or ?v_134 P4) ?v_118)) (or (or ?v_37 ?v_72) ?v_76)) (or (or P10 ?v_22) ?v_100)) (or (or P38 ?v_150) P15)) (or (or ?v_101 ?v_102) ?v_13)) (or (or ?v_9 ?v_103) ?v_54)) (or (or P26 P6) ?v_35)) (or (or ?v_79 ?v_8) ?v_104)) (or (or ?v_58 ?v_94) ?v_105)) (or (or P30 ?v_114) ?v_133)) (or (or ?v_164 P23) ?v_154)) (or (or ?v_78 ?v_70) P28)) (or (or ?v_109 ?v_104) ?v_107)) (or (or ?v_65 ?v_31) ?v_68)) (or (or ?v_108 ?v_139) ?v_124)) (or (or ?v_0 P15) ?v_96)) (or (or ?v_184 ?v_110) ?v_111)) (or (or ?v_28 ?v_13) ?v_46)) (or (or ?v_112 ?v_113) P29)) (or (or ?v_33 ?v_114) P22)) (or (or ?v_69 ?v_115) ?v_116)) (or (or ?v_44 ?v_55) ?v_148)) (or (or ?v_44 ?v_21) ?v_56)) (or (or ?v_130 ?v_141) ?v_57)) (or (or ?v_162 ?v_16) P28)) (or (or P14 P35) ?v_118)) (or (or P18 ?v_72) ?v_119)) (or (or ?v_2 ?v_120) ?v_32)) (or (or ?v_65 ?v_135) ?v_45)) (or (or ?v_122 ?v_74) ?v_67)) (or (or P29 ?v_113) ?v_123)) (or (or ?v_196 ?v_124) ?v_125)) (or (or ?v_126 ?v_91) ?v_56)) (or (or P8 ?v_80) ?v_37)) (or (or ?v_127 ?v_43) P32)) (or (or ?v_19 ?v_57) ?v_98)) (or (or ?v_39 ?v_174) ?v_172)) (or (or P30 ?v_101) ?v_64)) (or (or ?v_55 ?v_89) P32)) (or (or ?v_104 ?v_129) ?v_9)) (or (or ?v_130 P12) P4)) (or (or ?v_131 ?v_132) P29)) (or (or ?v_132 ?v_133) ?v_134)) (or (or P0 P24) ?v_15)) (or (or ?v_85 ?v_122) ?v_7)) (or (or ?v_95 ?v_70) ?v_135)) (or (or ?v_62 ?v_26) ?v_78)) (or ?v_159 P9)) (or (or ?v_81 ?v_136) ?v_29)) (or (or ?v_137 ?v_138) P5)) (or (or ?v_56 ?v_122) P16)) (or (or ?v_139 ?v_98) ?v_26)) (or (or ?v_2 ?v_140) P29)) (or (or ?v_81 ?v_8) ?v_85)) (or (or ?v_96 ?v_61) ?v_141)) (or (or ?v_142 ?v_85) ?v_120)) (or (or ?v_129 ?v_85) P25)) (or (or ?v_155 P15) ?v_76)) (or (or ?v_85 ?v_204) ?v_10)) (or (or ?v_118 ?v_141) ?v_100)) (or (or ?v_76 ?v_5) ?v_169)) (or (or ?v_144 ?v_83) ?v_69)) (or (or ?v_103 ?v_145) ?v_197)) (or (or ?v_124 P1) ?v_107)) (or (or ?v_69 P12) ?v_0)) (or (or ?v_50 ?v_146) ?v_126)) (or (or ?v_147 ?v_148) ?v_63)) (or (or ?v_72 ?v_149) ?v_22)) (or (or ?v_177 ?v_150) ?v_112)) (or (or ?v_92 ?v_151) ?v_152)) (or (or P16 ?v_151) ?v_131)) (or (or P23 ?v_170) ?v_2)) (or (or P9 ?v_80) ?v_51)) (or (or ?v_185 ?v_123) ?v_39)) (or (or ?v_153 ?v_154) ?v_112)) (or (or ?v_136 ?v_6) ?v_141)) (or (or P34 P35) P17)) (or (or ?v_10 ?v_44) ?v_155)) (or (or ?v_133 ?v_156) P7)) (or (or ?v_43 ?v_103) ?v_38)) (or (or ?v_198 ?v_136) ?v_127)) (or (or ?v_157 P33) ?v_31)) (or (or P28 ?v_146) ?v_0)) (or (or ?v_70 ?v_158) ?v_1)) (or ?v_159 ?v_116)) (or (or P1 P23) ?v_130)) (or (or ?v_93 ?v_88) ?v_26)) (or (or ?v_105 ?v_142) ?v_160)) (or (or ?v_60 ?v_194) ?v_102)) (or (or ?v_161 ?v_124) ?v_189)) (or (or ?v_63 ?v_162) ?v_163)) (or (or ?v_164 ?v_101) ?v_95)) (or (or ?v_165 ?v_12) ?v_133)) (or (or ?v_96 ?v_21) ?v_155)) (or (or ?v_106 P17) ?v_74)) (or (or ?v_37 ?v_20) ?v_15)) (or (or ?v_117 ?v_43) ?v_77)) (or (or ?v_12 P2) ?v_179)) (or (or ?v_29 ?v_123) ?v_107)) (or (or ?v_166 ?v_163) P15)) (or (or ?v_157 ?v_28) ?v_49)) (or (or ?v_110 ?v_167) ?v_23)) (or (or ?v_200 ?v_61) ?v_168)) (or (or ?v_168 P9) ?v_37)) (or (or ?v_136 ?v_128) ?v_169)) (or (or ?v_176 P33) ?v_170)) (or (or ?v_9 ?v_93) ?v_129)) (or (or ?v_15 ?v_171) ?v_205)) (or (or ?v_129 ?v_153) ?v_130)) (or (or ?v_6 ?v_69) ?v_61)) (or (or ?v_156 ?v_118) ?v_188)) (or (or P4 P35) ?v_172)) (or (or ?v_114 ?v_168) ?v_108)) (or (or ?v_20 ?v_58) P30)) (or (or ?v_38 ?v_65) P3)) (or (or ?v_69 ?v_146) ?v_131)) (or (or ?v_68 ?v_158) ?v_173)) (or (or ?v_19 ?v_120) ?v_106)) (or (or ?v_83 ?v_0) ?v_174)) (or (or ?v_2 ?v_8) ?v_175)) (or (or ?v_106 ?v_28) P38)) (or (or ?v_130 ?v_142) ?v_112)) (or (or P10 ?v_26) P37)) (or (or ?v_74 ?v_33) ?v_118)) (or (or ?v_0 ?v_176) ?v_64)) (or (or P15 P8) ?v_153)) (or (or ?v_10 ?v_116) P1)) (or (or ?v_12 ?v_33) P0)) (or (or ?v_157 ?v_125) ?v_31)) (or (or P32 ?v_7) ?v_177)) (or (or ?v_118 P16) ?v_137)) (or (or ?v_76 ?v_46) ?v_107)) (or (or P28 ?v_53) ?v_143)) (or (or ?v_162 ?v_178) ?v_6)) (or (or ?v_125 P2) ?v_18)) (or (or ?v_156 ?v_124) ?v_133)) (or (or ?v_11 ?v_27) ?v_9)) (or (or ?v_142 ?v_100) ?v_11)) (or (or ?v_183 ?v_62) ?v_153)) (or (or ?v_179 ?v_1) ?v_127)) (or (or ?v_123 ?v_180) ?v_181)) (or (or ?v_12 ?v_72) ?v_1)) (or (or ?v_85 ?v_145) ?v_170)) (or (or ?v_9 ?v_64) P18)) (or (or ?v_86 ?v_154) ?v_114)) (or (or ?v_78 ?v_69) ?v_5)) (or (or ?v_107 ?v_14) ?v_49)) (or (or ?v_143 ?v_175) ?v_12)) (or (or ?v_47 ?v_113) ?v_175)) (or (or ?v_29 ?v_143) P7)) (or (or ?v_146 ?v_182) ?v_120)) (or (or ?v_144 ?v_167) ?v_166)) (or (or ?v_183 ?v_2) P29)) (or (or ?v_62 ?v_137) P38)) (or (or ?v_120 ?v_150) ?v_166)) (or (or P2 ?v_77) ?v_91)) (or (or ?v_73 ?v_3) ?v_101)) (or (or P0 ?v_177) ?v_114)) (or (or ?v_64 ?v_70) ?v_111)) (or (or ?v_91 ?v_126) ?v_46)) (or (or ?v_76 ?v_184) ?v_90)) (or (or ?v_149 ?v_119) ?v_184)) (or (or P21 ?v_20) ?v_31)) (or (or ?v_184 ?v_101) ?v_35)) (or (or ?v_57 ?v_77) ?v_118)) (or (or P4 P3) ?v_77)) (or (or ?v_45 ?v_63) ?v_48)) (or (or ?v_85 ?v_118) ?v_163)) (or (or ?v_117 ?v_185) ?v_62)) (or (or P11 ?v_90) ?v_108)) (or (or P10 ?v_114) ?v_186)) (or (or P38 ?v_156) P20)) (or (or ?v_132 ?v_94) ?v_140)) (or (or ?v_125 ?v_89) ?v_128)) (or (or ?v_130 P7) ?v_50)) (or (or P32 ?v_175) ?v_15)) (or (or ?v_88 ?v_143) ?v_44)) (or (or P17 ?v_107) P27)) (or (or P13 P16) ?v_161)) (or (or ?v_175 ?v_162) ?v_57)) (or (or ?v_128 P12) ?v_105)) (or (or ?v_13 ?v_20) ?v_35)) (or (or ?v_67 ?v_152) ?v_57)) (or (or ?v_63 ?v_20) ?v_173)) (or (or P37 ?v_47) ?v_29)) (or (or ?v_46 ?v_149) ?v_178)) (or (or ?v_0 ?v_80) P27)) (or (or P16 P28) ?v_195)) (or (or ?v_56 ?v_176) P28)) (or (or ?v_126 ?v_1) ?v_201)) (or (or ?v_187 ?v_76) ?v_193)) (or (or ?v_62 ?v_168) P3)) (or (or P14 ?v_172) ?v_168)) (or (or ?v_91 ?v_157) ?v_89)) (or (or ?v_109 P26) ?v_53)) (or (or ?v_100 ?v_188) ?v_63)) (or (or ?v_62 ?v_55) ?v_161)) (or (or ?v_65 ?v_101) ?v_144)) (or (or ?v_53 ?v_162) ?v_87)) (or (or ?v_150 ?v_37) ?v_114)) (or (or ?v_189 ?v_94) ?v_14)) (or (or ?v_37 ?v_46) ?v_189)) (or (or ?v_104 ?v_118) P13)) (or (or ?v_15 ?v_86) ?v_78)) (or (or ?v_152 ?v_33) ?v_124)) (or (or ?v_165 ?v_190) ?v_117)) (or (or ?v_110 ?v_191) ?v_128)) (or (or ?v_96 ?v_184) ?v_192)) (or (or ?v_128 ?v_65) ?v_91)) (or (or ?v_149 ?v_35) P20)) (or (or P31 ?v_182) ?v_176)) (or (or P1 ?v_52) P24)) (or (or ?v_16 P30) ?v_46)) (or (or ?v_174 ?v_82) P2)) (or (or P5 ?v_46) ?v_125)) (or (or ?v_89 ?v_152) ?v_77)) (or (or P38 ?v_169) P39)) (or (or ?v_65 ?v_73) P12)) (or (or ?v_118 ?v_52) ?v_193)) (or (or ?v_11 ?v_0) ?v_124)) (or (or ?v_119 ?v_142) P7)) (or (or ?v_116 ?v_115) ?v_54)) (or (or P39 ?v_182) ?v_164)) (or (or ?v_73 ?v_117) ?v_95)) (or (or P24 ?v_32) ?v_116)) (or (or ?v_183 P1) ?v_16)) (or (or ?v_2 ?v_67) ?v_140)) (or (or ?v_161 ?v_123) ?v_145)) (or (or ?v_194 ?v_61) ?v_155)) (or (or P7 ?v_140) ?v_195)) (or (or ?v_144 ?v_102) ?v_100)) (or (or ?v_196 P35) ?v_29)) (or (or ?v_93 ?v_109) ?v_197)) (or (or ?v_195 P35) P5)) (or (or ?v_135 P16) P35)) (or (or ?v_113 ?v_72) P35)) (or (or ?v_33 ?v_42) ?v_7)) (or (or P21 ?v_1) ?v_162)) (or (or ?v_1 ?v_193) ?v_6)) (or (or ?v_179 ?v_92) ?v_74)) (or (or ?v_46 ?v_136) ?v_3)) (or (or ?v_169 P35) ?v_144)) (or (or ?v_127 ?v_46) ?v_130)) (or (or P19 ?v_145) P23)) (or (or P28 ?v_138) P14)) (or (or ?v_10 P19) ?v_198)) (or (or ?v_135 ?v_49) ?v_97)) (or (or ?v_161 P7) ?v_83)) (or (or ?v_23 ?v_174) ?v_1)) (or (or ?v_199 ?v_182) ?v_83)) (or (or ?v_87 ?v_62) ?v_179)) (or (or P15 ?v_81) ?v_57)) (or (or ?v_175 ?v_94) P12)) (or (or ?v_141 ?v_132) ?v_78)) (or (or ?v_42 ?v_46) ?v_93)) (or (or ?v_126 ?v_146) ?v_179)) (or (or ?v_206 ?v_184) P1)) (or (or ?v_65 P36) ?v_200)) (or (or ?v_58 ?v_147) P20)) (or (or ?v_170 ?v_171) ?v_82)) (or (or P2 ?v_85) ?v_150)) (or (or P13 ?v_201) ?v_157)) (or (or ?v_47 ?v_98) ?v_190)) (or (or ?v_138 ?v_116) ?v_35)) (or (or ?v_47 ?v_66) ?v_76)) (or (or ?v_107 ?v_115) ?v_88)) (or (or ?v_18 ?v_131) P15)) (or (or P11 ?v_174) ?v_60)) (or (or P36 ?v_58) ?v_148)) (or (or ?v_145 ?v_114) ?v_191)) (or (or P27 ?v_122) ?v_179)) (or (or ?v_165 ?v_88) ?v_190)) (or (or P4 ?v_169) ?v_170)) (or (or P10 P21) ?v_46)) (or (or ?v_2 ?v_83) P38)) (or (or ?v_43 ?v_145) ?v_137)) (or (or P24 ?v_173) ?v_7)) (or (or ?v_153 ?v_178) ?v_47)) (or (or ?v_183 P18) ?v_92)) (or (or ?v_173 ?v_26) P30)) (or (or ?v_96 ?v_169) ?v_195)) (or (or ?v_140 ?v_68) P0)) (or (or ?v_72 ?v_59) ?v_95)) (or (or ?v_31 ?v_80) ?v_12)) (or (or ?v_174 ?v_132) ?v_122)) (or (or ?v_3 ?v_16) ?v_93)) (or (or P36 ?v_63) ?v_117)) (or (or ?v_39 ?v_54) ?v_56)) (or (or ?v_58 ?v_86) ?v_133)) (or (or ?v_137 P21) P18)) (or (or ?v_73 ?v_12) P32)) (or (or P31 ?v_36) ?v_123)) (or (or ?v_154 P25) P3)) (or ?v_207 ?v_182)) (or (or ?v_191 ?v_165) ?v_23)) (or (or ?v_74 ?v_120) ?v_160)) (or (or ?v_202 ?v_146) ?v_189)) (or (or ?v_118 ?v_10) ?v_203)) (or (or P11 ?v_147) ?v_38)) (or (or ?v_178 ?v_15) P18)) (or (or ?v_116 P13) ?v_69)) (or (or ?v_109 ?v_50) ?v_97)) (or (or ?v_136 ?v_168) P1)) (or (or ?v_47 ?v_68) P39)) (or (or ?v_43 ?v_167) ?v_139)) (or (or ?v_98 ?v_9) ?v_167)) (or (or P15 ?v_160) ?v_61)) (or (or P27 ?v_170) ?v_186)) (or (or ?v_134 ?v_109) ?v_125)) (or (or ?v_134 ?v_77) ?v_86)) (or (or ?v_181 ?v_9) ?v_158)) (or (or P10 ?v_61) ?v_182)) (or (or ?v_204 P18) ?v_79)) (or (or ?v_118 ?v_64) ?v_161)) (or (or ?v_127 P1) P9)) (or (or ?v_70 ?v_49) ?v_105)) (or (or ?v_38 ?v_10) ?v_100)) (or (or ?v_134 P18) ?v_98)) (or (or P3 ?v_146) ?v_156)) (or (or ?v_62 ?v_95) ?v_151)) (or (or ?v_158 ?v_96) P15)) (or (or ?v_142 ?v_162) ?v_184)) (or (or ?v_201 ?v_39) ?v_169)) (or (or ?v_14 ?v_105) P26)) (or (or ?v_133 ?v_39) (not ?v_155))) (or (or P4 ?v_36) ?v_164)) (or (or ?v_192 P9) ?v_203)) (or (or ?v_6 P7) ?v_64)) (or (or ?v_93 P31) ?v_205)) (or (or P6 ?v_148) ?v_149)) (or (or ?v_53 P21) ?v_26)) (or (or ?v_67 ?v_165) ?v_122)) (or (or P33 ?v_173) P7)) (or (or P5 ?v_143) ?v_102)) (or (or P12 ?v_153) ?v_124)) (or (or ?v_19 ?v_63) ?v_66)) (or (or P25 ?v_53) ?v_188)) (or (or ?v_104 ?v_137) ?v_176)) (or (or ?v_194 ?v_78) P20)) (or (or ?v_113 ?v_146) ?v_64)) (or (or P23 ?v_102) ?v_158)) (or (or ?v_9 ?v_113) ?v_78)) (or (or ?v_169 ?v_143) ?v_170)) (or (or ?v_97 ?v_156) ?v_168)) (or (or ?v_2 ?v_43) ?v_153)) (or (or ?v_98 ?v_122) P38)) (or (or ?v_50 ?v_10) ?v_91)) (or (or P17 ?v_38) ?v_164)) (or (or ?v_80 ?v_162) ?v_97)) (or (or ?v_28 P12) ?v_191)) (or (or ?v_30 ?v_139) P9)) (or (or ?v_90 ?v_182) ?v_78)) (or (or ?v_69 ?v_206) ?v_49)) (or (or ?v_117 ?v_80) ?v_196)) (or (or ?v_35 P13) ?v_28)) (or (or ?v_0 P33) ?v_125)) (or (or ?v_199 ?v_74) ?v_118)) (or (or ?v_79 P19) ?v_152)) (or (or ?v_132 ?v_202) ?v_98)) (or (or P20 ?v_138) ?v_104)) (or ?v_207 P28)) (or (or ?v_77 ?v_46) ?v_168)) (or (or ?v_103 ?v_82) ?v_176)) (or (or P19 ?v_153) ?v_112)) (or (or ?v_168 ?v_145) ?v_59)) (or (or ?v_29 ?v_175) ?v_97)) (or (or ?v_181 ?v_79) ?v_8)) (or (or P17 P9) ?v_149)) (or (or P0 ?v_164) ?v_51)) (or (or ?v_52 ?v_113) ?v_77)) (or (or ?v_195 ?v_42) ?v_128)) (or (or P0 P39) ?v_157)) (or (or ?v_86 ?v_43) ?v_128)) (or (or ?v_37 ?v_80) ?v_193)) (or (or ?v_174 P30) ?v_29)) (or (or ?v_77 ?v_160) ?v_7)) (or (or ?v_62 ?v_33) ?v_29)) (or (or ?v_181 P25) P6)) (or (or ?v_31 P30) ?v_167)) (or (or ?v_203 ?v_187) ?v_36)) (or (or ?v_200 P7) ?v_44)) (or (or ?v_180 ?v_9) P20)) (or (or ?v_138 ?v_196) ?v_41)) (or (or ?v_5 P11) ?v_188)) (or (or ?v_193 ?v_150) ?v_202))))))))))))))))))))))))))))))
(check-sat)
(exit)
